NAME : sim17.45981.tour
COMMENT : Length = 45981
COMMENT : Found by LKH [Keld Helsgaun] Fri Sep 14 10:26:25 2018
TYPE : TOUR
DIMENSION : 17
TOUR_SECTION
1
6
14
15
5
12
3
7
11
8
16
10
2
9
4
13
17
-1
EOF
